p cnf 1775 2048
-15 3 44 46 0
-15 3 44 -46 0
-44 -40 45 47 0
-44 -40 45 -47 0
-45 -18 -41 48 0
-45 -18 -41 -48 0
25 -13 -17 9 0
-29 -39 49 51 0
-29 -39 49 -51 0
-49 35 50 52 0
-49 35 50 -52 0
-50 42 -32 53 0
-50 42 -32 -53 0
-39 25 54 56 0
-39 25 54 -56 0
-54 16 55 57 0
-54 16 55 -57 0
-55 -34 37 58 0
-55 -34 37 -58 0
-2 36 59 62 0
-2 36 59 -62 0
-59 21 60 63 0
-59 21 60 -63 0
-60 -19 61 64 0
-60 -19 61 -64 0
-61 -1 -38 65 0
-61 -1 -38 -65 0
5 -21 32 20 0
5 -34 66 69 0
5 -34 66 -69 0
-66 -38 67 70 0
-66 -38 67 -70 0
-67 -8 68 71 0
-67 -8 68 -71 0
-68 29 -26 72 0
-68 29 -26 -72 0
-23 3 8 28 0
-16 -25 73 75 0
-16 -25 73 -75 0
-73 37 74 76 0
-73 37 74 -76 0
-74 -39 -34 77 0
-74 -39 -34 -77 0
-16 33 -9 27 0
41 15 78 80 0
41 15 78 -80 0
-78 -18 79 81 0
-78 -18 79 -81 0
-79 -40 3 82 0
-79 -40 3 -82 0
-4 -24 83 86 0
-4 -24 83 -86 0
-83 -7 84 87 0
-83 -7 84 -87 0
-84 43 85 88 0
-84 43 85 -88 0
-85 41 -17 89 0
-85 41 -17 -89 0
-33 12 36 -7 0
-41 -17 90 93 0
-41 -17 90 -93 0
-90 24 91 94 0
-90 24 91 -94 0
-91 -43 92 95 0
-91 -43 92 -95 0
-92 7 -4 96 0
-92 7 -4 -96 0
-6 -10 97 99 0
-6 -10 97 -99 0
-97 -19 98 100 0
-97 -19 98 -100 0
-98 -27 4 101 0
-98 -27 4 -101 0
-6 4 102 104 0
-6 4 102 -104 0
-102 27 103 105 0
-102 27 103 -105 0
-103 19 -10 106 0
-103 19 -10 -106 0
18 31 107 111 0
18 31 107 -111 0
-107 -2 108 112 0
-107 -2 108 -112 0
-108 6 109 113 0
-108 6 109 -113 0
-109 -30 110 114 0
-109 -30 110 -114 0
-110 35 43 115 0
-110 35 43 -115 0
-24 -7 116 119 0
-24 -7 116 -119 0
-116 4 117 120 0
-116 4 117 -120 0
-117 -17 118 121 0
-117 -17 118 -121 0
-118 43 -41 122 0
-118 43 -41 -122 0
-26 -5 123 126 0
-26 -5 123 -126 0
-123 -34 124 127 0
-123 -34 124 -127 0
-124 38 125 128 0
-124 38 125 -128 0
-125 -29 8 129 0
-125 -29 8 -129 0
-25 -37 130 132 0
-25 -37 130 -132 0
-130 -39 131 133 0
-130 -39 131 -133 0
-131 -34 16 134 0
-131 -34 16 -134 0
-4 -6 135 137 0
-4 -6 135 -137 0
-135 27 136 138 0
-135 27 136 -138 0
-136 -19 -10 139 0
-136 -19 -10 -139 0
-34 -8 140 143 0
-34 -8 140 -143 0
-140 38 141 144 0
-140 38 141 -144 0
-141 26 142 145 0
-141 26 142 -145 0
-142 5 29 146 0
-142 5 29 -146 0
-25 13 9 -17 0
-18 43 147 151 0
-18 43 147 -151 0
-147 2 148 152 0
-147 2 148 -152 0
-148 6 149 153 0
-148 6 149 -153 0
-149 -35 150 154 0
-149 -35 150 -154 0
-150 30 31 155 0
-150 30 31 -155 0
-35 39 156 158 0
-35 39 156 -158 0
-156 32 157 159 0
-156 32 157 -159 0
-157 42 29 160 0
-157 42 29 -160 0
37 -25 161 163 0
37 -25 161 -163 0
-161 -39 162 164 0
-161 -39 162 -164 0
-162 34 16 165 0
-162 34 16 -165 0
15 18 166 168 0
15 18 166 -168 0
-166 -40 167 169 0
-166 -40 167 -169 0
-167 -3 41 170 0
-167 -3 41 -170 0
30 -2 171 175 0
30 -2 171 -175 0
-171 6 172 176 0
-171 6 172 -176 0
-172 -31 173 177 0
-172 -31 173 -177 0
-173 -18 174 178 0
-173 -18 174 -178 0
-174 35 -43 179 0
-174 35 -43 -179 0
43 -31 180 184 0
43 -31 180 -184 0
-180 6 181 185 0
-180 6 181 -185 0
-181 -18 182 186 0
-181 -18 182 -186 0
-182 -35 183 187 0
-182 -35 183 -187 0
-183 2 -30 188 0
-183 2 -30 -188 0
21 36 189 192 0
21 36 189 -192 0
-189 1 190 193 0
-189 1 190 -193 0
-190 -19 191 194 0
-190 -19 191 -194 0
-191 -38 2 195 0
-191 -38 2 -195 0
3 15 196 198 0
3 15 196 -198 0
-196 -40 197 199 0
-196 -40 197 -199 0
-197 -41 18 200 0
-197 -41 18 -200 0
14 11 201 203 0
14 11 201 -203 0
-201 20 202 204 0
-201 20 202 -204 0
-202 12 28 205 0
-202 12 28 -205 0
18 30 206 210 0
18 30 206 -210 0
-206 43 207 211 0
-206 43 207 -211 0
-207 -2 208 212 0
-207 -2 208 -212 0
-208 -6 209 213 0
-208 -6 209 -213 0
-209 -35 -31 214 0
-209 -35 -31 -214 0
19 -27 215 217 0
19 -27 215 -217 0
-215 4 216 218 0
-215 4 216 -218 0
-216 -10 6 219 0
-216 -10 6 -219 0
-36 21 220 223 0
-36 21 220 -223 0
-220 19 221 224 0
-220 19 221 -224 0
-221 38 222 225 0
-221 38 222 -225 0
-222 1 -2 226 0
-222 1 -2 -226 0
-3 -15 227 229 0
-3 -15 227 -229 0
-227 -18 228 230 0
-227 -18 228 -230 0
-228 40 -41 231 0
-228 40 -41 -231 0
-33 -36 12 7 0
-22 -24 -15 -23 0
1 -36 232 235 0
1 -36 232 -235 0
-232 -19 233 236 0
-232 -19 233 -236 0
-233 21 234 237 0
-233 21 234 -237 0
-234 -2 -38 238 0
-234 -2 -38 -238 0
24 -41 239 242 0
24 -41 239 -242 0
-239 43 240 243 0
-239 43 240 -243 0
-240 -4 241 244 0
-240 -4 241 -244 0
-241 -17 -7 245 0
-241 -17 -7 -245 0
-6 -43 246 250 0
-6 -43 246 -250 0
-246 -2 247 251 0
-246 -2 247 -251 0
-247 -31 248 252 0
-247 -31 248 -252 0
-248 35 249 253 0
-248 35 249 -253 0
-249 18 30 254 0
-249 18 30 -254 0
19 -2 255 258 0
19 -2 255 -258 0
-255 38 256 259 0
-255 38 256 -259 0
-256 36 257 260 0
-256 36 257 -260 0
-257 1 -21 261 0
-257 1 -21 -261 0
-18 -2 262 266 0
-18 -2 262 -266 0
-262 43 263 267 0
-262 43 263 -267 0
-263 30 264 268 0
-263 30 264 -268 0
-264 -6 265 269 0
-264 -6 265 -269 0
-265 -35 31 270 0
-265 -35 31 -270 0
-5 -8 271 274 0
-5 -8 271 -274 0
-271 -26 272 275 0
-271 -26 272 -275 0
-272 -34 273 276 0
-272 -34 273 -276 0
-273 -29 -38 277 0
-273 -29 -38 -277 0
18 -30 278 282 0
18 -30 278 -282 0
-278 -43 279 283 0
-278 -43 279 -283 0
-279 -6 280 284 0
-279 -6 280 -284 0
-280 31 281 285 0
-280 31 281 -285 0
-281 2 -35 286 0
-281 2 -35 -286 0
-40 30 287 289 0
-40 30 287 -289 0
-287 -42 288 290 0
-287 -42 288 -290 0
-288 -1 14 291 0
-288 -1 14 -291 0
-33 -9 -27 -16 0
14 12 292 294 0
14 12 292 -294 0
-292 -28 293 295 0
-292 -28 293 -295 0
-293 -20 11 296 0
-293 -20 11 -296 0
31 6 297 301 0
31 6 297 -301 0
-297 18 298 302 0
-297 18 298 -302 0
-298 30 299 303 0
-298 30 299 -303 0
-299 35 300 304 0
-299 35 300 -304 0
-300 -2 -43 305 0
-300 -2 -43 -305 0
16 -9 33 -27 0
-31 -10 13 22 0
11 37 -26 306 0
11 37 -26 -306 0
29 42 307 309 0
29 42 307 -309 0
-307 -39 308 310 0
-307 -39 308 -310 0
-308 32 35 311 0
-308 32 35 -311 0
12 -28 312 314 0
12 -28 312 -314 0
-312 -11 313 315 0
-312 -11 313 -315 0
-313 20 14 316 0
-313 20 14 -316 0
31 -18 317 321 0
31 -18 317 -321 0
-317 2 318 322 0
-317 2 318 -322 0
-318 -6 319 323 0
-318 -6 319 -323 0
-319 43 320 324 0
-319 43 320 -324 0
-320 30 35 325 0
-320 30 35 -325 0
2 31 326 330 0
2 31 326 -330 0
-326 -30 327 331 0
-326 -30 327 -331 0
-327 43 328 332 0
-327 43 328 -332 0
-328 35 329 333 0
-328 35 329 -333 0
-329 18 -6 334 0
-329 18 -6 -334 0
-17 -9 13 25 0
-39 16 335 337 0
-39 16 335 -337 0
-335 -37 336 338 0
-335 -37 336 -338 0
-336 25 34 339 0
-336 25 34 -339 0
26 38 340 343 0
26 38 340 -343 0
-340 -8 341 344 0
-340 -8 341 -344 0
-341 34 342 345 0
-341 34 342 -345 0
-342 5 -29 346 0
-342 5 -29 -346 0
28 -8 -3 -23 0
-11 14 347 349 0
-11 14 347 -349 0
-347 -12 348 350 0
-347 -12 348 -350 0
-348 28 20 351 0
-348 28 20 -351 0
14 -12 352 354 0
14 -12 352 -354 0
-352 20 353 355 0
-352 20 353 -355 0
-353 -28 11 356 0
-353 -28 11 -356 0
6 2 357 361 0
6 2 357 -361 0
-357 -31 358 362 0
-357 -31 358 -362 0
-358 -43 359 363 0
-358 -43 359 -363 0
-359 18 360 364 0
-359 18 360 -364 0
-360 35 30 365 0
-360 35 30 -365 0
4 -43 366 369 0
4 -43 366 -369 0
-366 -24 367 370 0
-366 -24 367 -370 0
-367 7 368 371 0
-367 7 368 -371 0
-368 17 41 372 0
-368 17 41 -372 0
-4 -24 373 376 0
-4 -24 373 -376 0
-373 43 374 377 0
-373 43 374 -377 0
-374 7 375 378 0
-374 7 375 -378 0
-375 -41 -17 379 0
-375 -41 -17 -379 0
43 -2 380 384 0
43 -2 380 -384 0
-380 31 381 385 0
-380 31 381 -385 0
-381 6 382 386 0
-381 6 382 -386 0
-382 -30 383 387 0
-382 -30 383 -387 0
-383 -35 -18 388 0
-383 -35 -18 -388 0
-21 -1 389 392 0
-21 -1 389 -392 0
-389 2 390 393 0
-389 2 390 -393 0
-390 -19 391 394 0
-390 -19 391 -394 0
-391 -36 38 395 0
-391 -36 38 -395 0
-25 -34 396 398 0
-25 -34 396 -398 0
-396 -37 397 399 0
-396 -37 397 -399 0
-397 39 -16 400 0
-397 39 -16 -400 0
8 -26 401 404 0
8 -26 401 -404 0
-401 -34 402 405 0
-401 -34 402 -405 0
-402 29 403 406 0
-402 29 403 -406 0
-403 -5 -38 407 0
-403 -5 -38 -407 0
-4 10 408 410 0
-4 10 408 -410 0
-408 -6 409 411 0
-408 -6 409 -411 0
-409 27 19 412 0
-409 27 19 -412 0
15 -22 -23 24 0
-7 -12 33 36 0
-13 -25 9 17 0
-6 -2 413 417 0
-6 -2 413 -417 0
-413 43 414 418 0
-413 43 414 -418 0
-414 31 415 419 0
-414 31 415 -419 0
-415 35 416 420 0
-415 35 416 -420 0
-416 18 30 421 0
-416 18 30 -421 0
1 -38 422 425 0
1 -38 422 -425 0
-422 -19 423 426 0
-422 -19 423 -426 0
-423 36 424 427 0
-423 36 424 -427 0
-424 -2 -21 428 0
-424 -2 -21 -428 0
8 -23 -3 -28 0
-2 -19 429 432 0
-2 -19 429 -432 0
-429 -21 430 433 0
-429 -21 430 -433 0
-430 -38 431 434 0
-430 -38 431 -434 0
-431 -1 -36 435 0
-431 -1 -36 -435 0
29 -39 436 438 0
29 -39 436 -438 0
-436 -32 437 439 0
-436 -32 437 -439 0
-437 -35 42 440 0
-437 -35 42 -440 0
-35 -43 441 445 0
-35 -43 441 -445 0
-441 -2 442 446 0
-441 -2 442 -446 0
-442 -6 443 447 0
-442 -6 443 -447 0
-443 31 444 448 0
-443 31 444 -448 0
-444 30 18 449 0
-444 30 18 -449 0
29 38 450 453 0
29 38 450 -453 0
-450 -26 451 454 0
-450 -26 451 -454 0
-451 -34 452 455 0
-451 -34 452 -455 0
-452 5 8 456 0
-452 5 8 -456 0
-31 18 457 461 0
-31 18 457 -461 0
-457 -35 458 462 0
-457 -35 458 -462 0
-458 6 459 463 0
-458 6 459 -463 0
-459 2 460 464 0
-459 2 460 -464 0
-460 -30 -43 465 0
-460 -30 -43 -465 0
-9 17 25 -13 0
35 -18 466 470 0
35 -18 466 -470 0
-466 -43 467 471 0
-466 -43 467 -471 0
-467 31 468 472 0
-467 31 468 -472 0
-468 -6 469 473 0
-468 -6 469 -473 0
-469 30 -2 474 0
-469 30 -2 -474 0
18 -2 475 479 0
18 -2 475 -479 0
-475 -31 476 480 0
-475 -31 476 -480 0
-476 6 477 481 0
-476 6 477 -481 0
-477 -30 478 482 0
-477 -30 478 -482 0
-478 -43 35 483 0
-478 -43 35 -483 0
-16 33 -27 9 0
-23 -28 -8 3 0
41 4 484 487 0
41 4 484 -487 0
-484 -7 485 488 0
-484 -7 485 -488 0
-485 -17 486 489 0
-485 -17 486 -489 0
-486 24 43 490 0
-486 24 43 -490 0
43 31 491 495 0
43 31 491 -495 0
-491 6 492 496 0
-491 6 492 -496 0
-492 35 493 497 0
-492 35 493 -497 0
-493 -30 494 498 0
-493 -30 494 -498 0
-494 -18 2 499 0
-494 -18 2 -499 0
19 6 500 502 0
19 6 500 -502 0
-500 -27 501 503 0
-500 -27 501 -503 0
-501 10 -4 504 0
-501 10 -4 -504 0
-24 7 505 508 0
-24 7 505 -508 0
-505 -4 506 509 0
-505 -4 506 -509 0
-506 17 507 510 0
-506 17 507 -510 0
-507 43 41 511 0
-507 43 41 -511 0
2 -38 512 515 0
2 -38 512 -515 0
-512 -36 513 516 0
-512 -36 513 -516 0
-513 21 514 517 0
-513 21 514 -517 0
-514 -1 -19 518 0
-514 -1 -19 -518 0
-12 7 36 -33 0
-6 35 519 523 0
-6 35 519 -523 0
-519 -31 520 524 0
-519 -31 520 -524 0
-520 -18 521 525 0
-520 -18 521 -525 0
-521 30 522 526 0
-521 30 522 -526 0
-522 -2 43 527 0
-522 -2 43 -527 0
-32 -35 528 530 0
-32 -35 528 -530 0
-528 -29 529 531 0
-528 -29 529 -531 0
-529 -42 -39 532 0
-529 -42 -39 -532 0
20 -11 533 535 0
20 -11 533 -535 0
-533 -14 534 536 0
-533 -14 534 -536 0
-534 28 12 537 0
-534 28 12 -537 0
5 -8 538 541 0
5 -8 538 -541 0
-538 34 539 542 0
-538 34 539 -542 0
-539 -26 540 543 0
-539 -26 540 -543 0
-540 -29 -38 544 0
-540 -29 -38 -544 0
15 23 22 24 0
-38 -19 545 548 0
-38 -19 545 -548 0
-545 -36 546 549 0
-545 -36 546 -549 0
-546 2 547 550 0
-546 2 547 -550 0
-547 -21 1 551 0
-547 -21 1 -551 0
-35 -31 552 556 0
-35 -31 552 -556 0
-552 -2 553 557 0
-552 -2 553 -557 0
-553 -43 554 558 0
-553 -43 554 -558 0
-554 -30 555 559 0
-554 -30 555 -559 0
-555 6 -18 560 0
-555 6 -18 -560 0
38 -1 561 564 0
38 -1 561 -564 0
-561 -21 562 565 0
-561 -21 562 -565 0
-562 19 563 566 0
-562 19 563 -566 0
-563 -2 -36 567 0
-563 -2 -36 -567 0
5 -34 568 571 0
5 -34 568 -571 0
-568 -38 569 572 0
-568 -38 569 -572 0
-569 -29 570 573 0
-569 -29 570 -573 0
-570 26 -8 574 0
-570 26 -8 -574 0
35 31 575 579 0
35 31 575 -579 0
-575 -18 576 580 0
-575 -18 576 -580 0
-576 30 577 581 0
-576 30 577 -581 0
-577 6 578 582 0
-577 6 578 -582 0
-578 43 -2 583 0
-578 43 -2 -583 0
-30 6 584 588 0
-30 6 584 -588 0
-584 -35 585 589 0
-584 -35 585 -589 0
-585 -2 586 590 0
-585 -2 586 -590 0
-586 18 587 591 0
-586 18 587 -591 0
-587 -31 43 592 0
-587 -31 43 -592 0
-5 26 593 596 0
-5 26 593 -596 0
-593 29 594 597 0
-593 29 594 -597 0
-594 34 595 598 0
-594 34 595 -598 0
-595 -8 38 599 0
-595 -8 38 -599 0
-18 -2 600 604 0
-18 -2 600 -604 0
-600 35 601 605 0
-600 35 601 -605 0
-601 -6 602 606 0
-601 -6 602 -606 0
-602 31 603 607 0
-602 31 603 -607 0
-603 43 -30 608 0
-603 43 -30 -608 0
-25 -9 -13 -17 0
-7 -33 -36 -12 0
-40 3 609 611 0
-40 3 609 -611 0
-609 18 610 612 0
-609 18 610 -612 0
-610 41 -15 613 0
-610 41 -15 -613 0
24 -43 614 617 0
24 -43 614 -617 0
-614 -17 615 618 0
-614 -17 615 -618 0
-615 -7 616 619 0
-615 -7 616 -619 0
-616 -4 41 620 0
-616 -4 41 -620 0
-32 -42 621 623 0
-32 -42 621 -623 0
-621 -39 622 624 0
-621 -39 622 -624 0
-622 35 29 625 0
-622 35 29 -625 0
-43 4 626 629 0
-43 4 626 -629 0
-626 -17 627 630 0
-626 -17 627 -630 0
-627 7 628 631 0
-627 7 628 -631 0
-628 -24 -41 632 0
-628 -24 -41 -632 0
6 -35 633 637 0
6 -35 633 -637 0
-633 2 634 638 0
-633 2 634 -638 0
-634 -18 635 639 0
-634 -18 635 -639 0
-635 31 636 640 0
-635 31 636 -640 0
-636 -43 -30 641 0
-636 -43 -30 -641 0
13 31 22 10 0
43 2 642 646 0
43 2 642 -646 0
-642 -30 643 647 0
-642 -30 643 -647 0
-643 18 644 648 0
-643 18 644 -648 0
-644 31 645 649 0
-644 31 645 -649 0
-645 -35 6 650 0
-645 -35 6 -650 0
-18 15 651 653 0
-18 15 651 -653 0
-651 41 652 654 0
-651 41 652 -654 0
-652 40 -3 655 0
-652 40 -3 -655 0
-18 35 656 660 0
-18 35 656 -660 0
-656 -43 657 661 0
-656 -43 657 -661 0
-657 -30 658 662 0
-657 -30 658 -662 0
-658 6 659 663 0
-658 6 659 -663 0
-659 2 -31 664 0
-659 2 -31 -664 0
-8 26 665 668 0
-8 26 665 -668 0
-665 -29 666 669 0
-665 -29 666 -669 0
-666 34 667 670 0
-666 34 667 -670 0
-667 -5 -38 671 0
-667 -5 -38 -671 0
-30 42 672 674 0
-30 42 672 -674 0
-672 40 673 675 0
-672 40 673 -675 0
-673 -1 -14 676 0
-673 -1 -14 -676 0
4 -27 677 679 0
4 -27 677 -679 0
-677 -19 678 680 0
-677 -19 678 -680 0
-678 10 6 681 0
-678 10 6 -681 0
2 -38 682 685 0
2 -38 682 -685 0
-682 -19 683 686 0
-682 -19 683 -686 0
-683 -1 684 687 0
-683 -1 684 -687 0
-684 -21 36 688 0
-684 -21 36 -688 0
-22 -31 13 10 0
-2 18 689 693 0
-2 18 689 -693 0
-689 -35 690 694 0
-689 -35 690 -694 0
-690 30 691 695 0
-690 30 691 -695 0
-691 6 692 696 0
-691 6 692 -696 0
-692 -31 -43 697 0
-692 -31 -43 -697 0
37 39 698 700 0
37 39 698 -700 0
-698 34 699 701 0
-698 34 699 -701 0
-699 -16 -25 702 0
-699 -16 -25 -702 0
-30 1 703 705 0
-30 1 703 -705 0
-703 -42 704 706 0
-703 -42 704 -706 0
-704 14 -40 707 0
-704 14 -40 -707 0
10 -22 -13 31 0
23 -24 22 -15 0
14 12 708 710 0
14 12 708 -710 0
-708 -11 709 711 0
-708 -11 709 -711 0
-709 28 -20 712 0
-709 28 -20 -712 0
39 -42 713 715 0
39 -42 713 -715 0
-713 -35 714 716 0
-713 -35 714 -716 0
-714 29 -32 717 0
-714 29 -32 -717 0
43 17 718 721 0
43 17 718 -721 0
-718 4 719 722 0
-718 4 719 -722 0
-719 7 720 723 0
-719 7 720 -723 0
-720 41 24 724 0
-720 41 24 -724 0
25 -37 725 727 0
25 -37 725 -727 0
-725 -16 726 728 0
-725 -16 726 -728 0
-726 34 39 729 0
-726 34 39 -729 0
-12 -14 730 732 0
-12 -14 730 -732 0
-730 20 731 733 0
-730 20 731 -733 0
-731 28 11 734 0
-731 28 11 -734 0
-36 7 33 -12 0
-2 21 735 738 0
-2 21 735 -738 0
-735 38 736 739 0
-735 38 736 -739 0
-736 1 737 740 0
-736 1 737 -740 0
-737 -19 36 741 0
-737 -19 36 -741 0
35 -30 742 746 0
35 -30 742 -746 0
-742 -43 743 747 0
-742 -43 743 -747 0
-743 2 744 748 0
-743 2 744 -748 0
-744 -6 745 749 0
-744 -6 745 -749 0
-745 31 -18 750 0
-745 31 -18 -750 0
-11 37 26 751 0
-11 37 26 -751 0
6 27 752 754 0
6 27 752 -754 0
-752 -10 753 755 0
-752 -10 753 -755 0
-753 4 -19 756 0
-753 4 -19 -756 0
-42 -35 757 759 0
-42 -35 757 -759 0
-757 -29 758 760 0
-757 -29 758 -760 0
-758 32 39 761 0
-758 32 39 -761 0
-43 35 762 766 0
-43 35 762 -766 0
-762 2 763 767 0
-762 2 763 -767 0
-763 18 764 768 0
-763 18 764 -768 0
-764 -30 765 769 0
-764 -30 765 -769 0
-765 -31 -6 770 0
-765 -31 -6 -770 0
30 2 771 775 0
30 2 771 -775 0
-771 -31 772 776 0
-771 -31 772 -776 0
-772 -35 773 777 0
-772 -35 773 -777 0
-773 18 774 778 0
-773 18 774 -778 0
-774 -43 -6 779 0
-774 -43 -6 -779 0
8 26 780 783 0
8 26 780 -783 0
-780 -5 781 784 0
-780 -5 781 -784 0
-781 29 782 785 0
-781 29 782 -785 0
-782 34 -38 786 0
-782 34 -38 -786 0
-20 -28 787 789 0
-20 -28 787 -789 0
-787 14 788 790 0
-787 14 788 -790 0
-788 -11 -12 791 0
-788 -11 -12 -791 0
-38 -8 792 795 0
-38 -8 792 -795 0
-792 26 793 796 0
-792 26 793 -796 0
-793 -34 794 797 0
-793 -34 794 -797 0
-794 29 -5 798 0
-794 29 -5 -798 0
-2 43 799 803 0
-2 43 799 -803 0
-799 -31 800 804 0
-799 -31 800 -804 0
-800 -30 801 805 0
-800 -30 801 -805 0
-801 -18 802 806 0
-801 -18 802 -806 0
-802 35 6 807 0
-802 35 6 -807 0
-15 22 24 -23 0
15 -41 808 810 0
15 -41 808 -810 0
-808 -18 809 811 0
-808 -18 809 -811 0
-809 -40 -3 812 0
-809 -40 -3 -812 0
-43 -4 813 816 0
-43 -4 813 -816 0
-813 7 814 817 0
-813 7 814 -817 0
-814 -24 815 818 0
-814 -24 815 -818 0
-815 17 -41 819 0
-815 17 -41 -819 0
27 -6 820 822 0
27 -6 820 -822 0
-820 -19 821 823 0
-820 -19 821 -823 0
-821 10 4 824 0
-821 10 4 -824 0
13 -22 31 -10 0
29 8 825 828 0
29 8 825 -828 0
-825 5 826 829 0
-825 5 826 -829 0
-826 38 827 830 0
-826 38 827 -830 0
-827 26 34 831 0
-827 26 34 -831 0
-41 3 832 834 0
-41 3 832 -834 0
-832 -15 833 835 0
-832 -15 833 -835 0
-833 18 40 836 0
-833 18 40 -836 0
39 32 837 839 0
39 32 837 -839 0
-837 35 838 840 0
-837 35 838 -840 0
-838 29 -42 841 0
-838 29 -42 -841 0
36 12 7 33 0
-35 43 842 846 0
-35 43 842 -846 0
-842 -2 843 847 0
-842 -2 843 -847 0
-843 -30 844 848 0
-843 -30 844 -848 0
-844 18 845 849 0
-844 18 845 -849 0
-845 -6 31 850 0
-845 -6 31 -850 0
40 -3 851 853 0
40 -3 851 -853 0
-851 -41 852 854 0
-851 -41 852 -854 0
-852 15 18 855 0
-852 15 18 -855 0
1 40 856 858 0
1 40 856 -858 0
-856 14 857 859 0
-856 14 857 -859 0
-857 30 -42 860 0
-857 30 -42 -860 0
19 21 861 864 0
19 21 861 -864 0
-861 -1 862 865 0
-861 -1 862 -865 0
-862 36 863 866 0
-862 36 863 -866 0
-863 38 -2 867 0
-863 38 -2 -867 0
3 18 868 870 0
3 18 868 -870 0
-868 40 869 871 0
-868 40 869 -871 0
-869 41 15 872 0
-869 41 15 -872 0
9 27 -33 -16 0
-30 31 873 877 0
-30 31 873 -877 0
-873 35 874 878 0
-873 35 874 -878 0
-874 18 875 879 0
-874 18 875 -879 0
-875 -2 876 880 0
-875 -2 876 -880 0
-876 -6 -43 881 0
-876 -6 -43 -881 0
31 -18 882 886 0
31 -18 882 -886 0
-882 2 883 887 0
-882 2 883 -887 0
-883 -30 884 888 0
-883 -30 884 -888 0
-884 43 885 889 0
-884 43 885 -889 0
-885 -6 -35 890 0
-885 -6 -35 -890 0
15 -24 23 -22 0
43 2 891 895 0
43 2 891 -895 0
-891 6 892 896 0
-891 6 892 -896 0
-892 18 893 897 0
-892 18 893 -897 0
-893 31 894 898 0
-893 31 894 -898 0
-894 35 30 899 0
-894 35 30 -899 0
5 38 900 903 0
5 38 900 -903 0
-900 29 901 904 0
-900 29 901 -904 0
-901 34 902 905 0
-901 34 902 -905 0
-902 -8 -26 906 0
-902 -8 -26 -906 0
15 -24 22 -23 0
34 39 907 909 0
34 39 907 -909 0
-907 37 908 910 0
-907 37 908 -910 0
-908 25 16 911 0
-908 25 16 -911 0
28 -20 912 914 0
28 -20 912 -914 0
-912 14 913 915 0
-912 14 913 -915 0
-913 11 -12 916 0
-913 11 -12 -916 0
-37 -25 917 919 0
-37 -25 917 -919 0
-917 -39 918 920 0
-917 -39 918 -920 0
-918 34 -16 921 0
-918 34 -16 -921 0
32 5 -20 21 0
16 -37 922 924 0
16 -37 922 -924 0
-922 39 923 925 0
-922 39 923 -925 0
-923 -34 25 926 0
-923 -34 25 -926 0
18 31 927 931 0
18 31 927 -931 0
-927 -30 928 932 0
-927 -30 928 -932 0
-928 -43 929 933 0
-928 -43 929 -933 0
-929 -2 930 934 0
-929 -2 930 -934 0
-930 6 -35 935 0
-930 6 -35 -935 0
-5 26 936 939 0
-5 26 936 -939 0
-936 -29 937 940 0
-936 -29 937 -940 0
-937 -34 938 941 0
-937 -34 938 -941 0
-938 8 -38 942 0
-938 8 -38 -942 0
31 30 943 947 0
31 30 943 -947 0
-943 -43 944 948 0
-943 -43 944 -948 0
-944 -6 945 949 0
-944 -6 945 -949 0
-945 35 946 950 0
-945 35 946 -950 0
-946 18 2 951 0
-946 18 2 -951 0
17 43 952 955 0
17 43 952 -955 0
-952 4 953 956 0
-952 4 953 -956 0
-953 -24 954 957 0
-953 -24 954 -957 0
-954 -41 7 958 0
-954 -41 7 -958 0
38 -19 959 962 0
38 -19 959 -962 0
-959 -36 960 963 0
-959 -36 960 -963 0
-960 -1 961 964 0
-960 -1 961 -964 0
-961 -2 21 965 0
-961 -2 21 -965 0
2 19 966 969 0
2 19 966 -969 0
-966 -1 967 970 0
-966 -1 967 -970 0
-967 38 968 971 0
-967 38 968 -971 0
-968 21 -36 972 0
-968 21 -36 -972 0
21 -1 973 976 0
21 -1 973 -976 0
-973 2 974 977 0
-973 2 974 -977 0
-974 36 975 978 0
-974 36 975 -978 0
-975 38 -19 979 0
-975 38 -19 -979 0
35 -29 980 982 0
35 -29 980 -982 0
-980 -42 981 983 0
-980 -42 981 -983 0
-981 32 -39 984 0
-981 32 -39 -984 0
-17 41 985 988 0
-17 41 985 -988 0
-985 4 986 989 0
-985 4 986 -989 0
-986 -7 987 990 0
-986 -7 987 -990 0
-987 -43 -24 991 0
-987 -43 -24 -991 0
-43 6 992 996 0
-43 6 992 -996 0
-992 30 993 997 0
-992 30 993 -997 0
-993 2 994 998 0
-993 2 994 -998 0
-994 35 995 999 0
-994 35 995 -999 0
-995 -18 31 1000 0
-995 -18 31 -1000 0
20 12 1001 1003 0
20 12 1001 -1003 0
-1001 -28 1002 1004 0
-1001 -28 1002 -1004 0
-1002 11 -14 1005 0
-1002 11 -14 -1005 0
-7 4 1006 1009 0
-7 4 1006 -1009 0
-1006 -43 1007 1010 0
-1006 -43 1007 -1010 0
-1007 -41 1008 1011 0
-1007 -41 1008 -1011 0
-1008 -17 24 1012 0
-1008 -17 24 -1012 0
34 -8 1013 1016 0
34 -8 1013 -1016 0
-1013 -5 1014 1017 0
-1013 -5 1014 -1017 0
-1014 29 1015 1018 0
-1014 29 1015 -1018 0
-1015 -38 -26 1019 0
-1015 -38 -26 -1019 0
-30 1 1020 1022 0
-30 1 1020 -1022 0
-1020 42 1021 1023 0
-1020 42 1021 -1023 0
-1021 14 40 1024 0
-1021 14 40 -1024 0
13 25 17 9 0
1 -19 1025 1028 0
1 -19 1025 -1028 0
-1025 2 1026 1029 0
-1025 2 1026 -1029 0
-1026 38 1027 1030 0
-1026 38 1027 -1030 0
-1027 36 -21 1031 0
-1027 36 -21 -1031 0
17 -4 1032 1035 0
17 -4 1032 -1035 0
-1032 -24 1033 1036 0
-1032 -24 1033 -1036 0
-1033 43 1034 1037 0
-1033 43 1034 -1037 0
-1034 -41 -7 1038 0
-1034 -41 -7 -1038 0
42 -40 1039 1041 0
42 -40 1039 -1041 0
-1039 14 1040 1042 0
-1039 14 1040 -1042 0
-1040 30 1 1043 0
-1040 30 1 -1043 0
-14 -20 1044 1046 0
-14 -20 1044 -1046 0
-1044 11 1045 1047 0
-1044 11 1045 -1047 0
-1045 28 12 1048 0
-1045 28 12 -1048 0
-36 12 33 -7 0
6 35 1049 1053 0
6 35 1049 -1053 0
-1049 30 1050 1054 0
-1049 30 1050 -1054 0
-1050 -18 1051 1055 0
-1050 -18 1051 -1055 0
-1051 2 1052 1056 0
-1051 2 1052 -1056 0
-1052 -31 43 1057 0
-1052 -31 43 -1057 0
41 -43 1058 1061 0
41 -43 1058 -1061 0
-1058 -7 1059 1062 0
-1058 -7 1059 -1062 0
-1059 17 1060 1063 0
-1059 17 1060 -1063 0
-1060 -4 -24 1064 0
-1060 -4 -24 -1064 0
-28 -11 1065 1067 0
-28 -11 1065 -1067 0
-1065 -14 1066 1068 0
-1065 -14 1066 -1068 0
-1066 -20 12 1069 0
-1066 -20 12 -1069 0
19 -1 1070 1073 0
19 -1 1070 -1073 0
-1070 36 1071 1074 0
-1070 36 1071 -1074 0
-1071 2 1072 1075 0
-1071 2 1072 -1075 0
-1072 38 -21 1076 0
-1072 38 -21 -1076 0
-27 16 9 -33 0
38 5 1077 1080 0
38 5 1077 -1080 0
-1077 -26 1078 1081 0
-1077 -26 1078 -1081 0
-1078 8 1079 1082 0
-1078 8 1079 -1082 0
-1079 -29 34 1083 0
-1079 -29 34 -1083 0
11 -28 1084 1086 0
11 -28 1084 -1086 0
-1084 -20 1085 1087 0
-1084 -20 1085 -1087 0
-1085 -14 -12 1088 0
-1085 -14 -12 -1088 0
1 -2 1089 1092 0
1 -2 1089 -1092 0
-1089 -38 1090 1093 0
-1089 -38 1090 -1093 0
-1090 -21 1091 1094 0
-1090 -21 1091 -1094 0
-1091 -36 19 1095 0
-1091 -36 19 -1095 0
1 2 1096 1099 0
1 2 1096 -1099 0
-1096 -19 1097 1100 0
-1096 -19 1097 -1100 0
-1097 -36 1098 1101 0
-1097 -36 1098 -1101 0
-1098 21 38 1102 0
-1098 21 38 -1102 0
16 39 1103 1105 0
16 39 1103 -1105 0
-1103 -25 1104 1106 0
-1103 -25 1104 -1106 0
-1104 37 -34 1107 0
-1104 37 -34 -1107 0
-29 -34 1108 1111 0
-29 -34 1108 -1111 0
-1108 5 1109 1112 0
-1108 5 1109 -1112 0
-1109 -26 1110 1113 0
-1109 -26 1110 -1113 0
-1110 38 -8 1114 0
-1110 38 -8 -1114 0
-38 -29 1115 1118 0
-38 -29 1115 -1118 0
-1115 8 1116 1119 0
-1115 8 1116 -1119 0
-1116 26 1117 1120 0
-1116 26 1117 -1120 0
-1117 34 5 1121 0
-1117 34 5 -1121 0
5 -38 1122 1125 0
5 -38 1122 -1125 0
-1122 29 1123 1126 0
-1122 29 1123 -1126 0
-1123 26 1124 1127 0
-1123 26 1124 -1127 0
-1124 8 -34 1128 0
-1124 8 -34 -1128 0
38 -2 1129 1132 0
38 -2 1129 -1132 0
-1129 -19 1130 1133 0
-1129 -19 1130 -1133 0
-1130 36 1131 1134 0
-1130 36 1131 -1134 0
-1131 -1 -21 1135 0
-1131 -1 -21 -1135 0
24 7 1136 1139 0
24 7 1136 -1139 0
-1136 -17 1137 1140 0
-1136 -17 1137 -1140 0
-1137 4 1138 1141 0
-1137 4 1138 -1141 0
-1138 -43 41 1142 0
-1138 -43 41 -1142 0
-43 -35 1143 1147 0
-43 -35 1143 -1147 0
-1143 -6 1144 1148 0
-1143 -6 1144 -1148 0
-1144 -30 1145 1149 0
-1144 -30 1145 -1149 0
-1145 -18 1146 1150 0
-1145 -18 1146 -1150 0
-1146 31 -2 1151 0
-1146 31 -2 -1151 0
42 -40 1152 1154 0
42 -40 1152 -1154 0
-1152 14 1153 1155 0
-1152 14 1153 -1155 0
-1153 -30 -1 1156 0
-1153 -30 -1 -1156 0
8 29 1157 1160 0
8 29 1157 -1160 0
-1157 34 1158 1161 0
-1157 34 1158 -1161 0
-1158 38 1159 1162 0
-1158 38 1159 -1162 0
-1159 -5 -26 1163 0
-1159 -5 -26 -1163 0
36 -38 1164 1167 0
36 -38 1164 -1167 0
-1164 21 1165 1168 0
-1164 21 1165 -1168 0
-1165 -2 1166 1169 0
-1165 -2 1166 -1169 0
-1166 19 1 1170 0
-1166 19 1 -1170 0
-26 -5 1171 1174 0
-26 -5 1171 -1174 0
-1171 38 1172 1175 0
-1171 38 1172 -1175 0
-1172 34 1173 1176 0
-1172 34 1173 -1176 0
-1173 -29 -8 1177 0
-1173 -29 -8 -1177 0
-20 -5 -21 32 0
43 -24 1178 1181 0
43 -24 1178 -1181 0
-1178 41 1179 1182 0
-1178 41 1179 -1182 0
-1179 17 1180 1183 0
-1179 17 1180 -1183 0
-1180 4 -7 1184 0
-1180 4 -7 -1184 0
23 24 -15 -22 0
19 -38 1185 1188 0
19 -38 1185 -1188 0
-1185 -1 1186 1189 0
-1185 -1 1186 -1189 0
-1186 21 1187 1190 0
-1186 21 1187 -1190 0
-1187 -36 -2 1191 0
-1187 -36 -2 -1191 0
23 -8 -3 -28 0
-15 -3 1192 1194 0
-15 -3 1192 -1194 0
-1192 41 1193 1195 0
-1192 41 1193 -1195 0
-1193 -40 -18 1196 0
-1193 -40 -18 -1196 0
26 -37 11 1197 0
26 -37 11 -1197 0
-20 -5 21 -32 0
43 31 1198 1202 0
43 31 1198 -1202 0
-1198 30 1199 1203 0
-1198 30 1199 -1203 0
-1199 -35 1200 1204 0
-1199 -35 1200 -1204 0
-1200 18 1201 1205 0
-1200 18 1201 -1205 0
-1201 6 -2 1206 0
-1201 6 -2 -1206 0
2 30 1207 1211 0
2 30 1207 -1211 0
-1207 -35 1208 1212 0
-1207 -35 1208 -1212 0
-1208 -18 1209 1213 0
-1208 -18 1209 -1213 0
-1209 -6 1210 1214 0
-1209 -6 1210 -1214 0
-1210 31 -43 1215 0
-1210 31 -43 -1215 0
-6 30 1216 1220 0
-6 30 1216 -1220 0
-1216 35 1217 1221 0
-1216 35 1217 -1221 0
-1217 18 1218 1222 0
-1217 18 1218 -1222 0
-1218 2 1219 1223 0
-1218 2 1219 -1223 0
-1219 -31 43 1224 0
-1219 -31 43 -1224 0
37 -39 1225 1227 0
37 -39 1225 -1227 0
-1225 25 1226 1228 0
-1225 25 1226 -1228 0
-1226 -16 34 1229 0
-1226 -16 34 -1229 0
2 43 1230 1234 0
2 43 1230 -1234 0
-1230 35 1231 1235 0
-1230 35 1231 -1235 0
-1231 -30 1232 1236 0
-1231 -30 1232 -1236 0
-1232 6 1233 1237 0
-1232 6 1233 -1237 0
-1233 -31 18 1238 0
-1233 -31 18 -1238 0
-32 -5 -21 20 0
1 19 1239 1242 0
1 19 1239 -1242 0
-1239 -36 1240 1243 0
-1239 -36 1240 -1243 0
-1240 -21 1241 1244 0
-1240 -21 1241 -1244 0
-1241 38 2 1245 0
-1241 38 2 -1245 0
10 4 1246 1248 0
10 4 1246 -1248 0
-1246 -6 1247 1249 0
-1246 -6 1247 -1249 0
-1247 19 -27 1250 0
-1247 19 -27 -1250 0
15 -41 1251 1253 0
15 -41 1251 -1253 0
-1251 3 1252 1254 0
-1251 3 1252 -1254 0
-1252 40 -18 1255 0
-1252 40 -18 -1255 0
2 1 1256 1259 0
2 1 1256 -1259 0
-1256 36 1257 1260 0
-1256 36 1257 -1260 0
-1257 -21 1258 1261 0
-1257 -21 1258 -1261 0
-1258 19 -38 1262 0
-1258 19 -38 -1262 0
-14 -1 1263 1265 0
-14 -1 1263 -1265 0
-1263 -42 1264 1266 0
-1263 -42 1264 -1266 0
-1264 30 40 1267 0
-1264 30 40 -1267 0
-25 17 -9 13 0
-5 32 21 20 0
26 5 1268 1271 0
26 5 1268 -1271 0
-1268 29 1269 1272 0
-1268 29 1269 -1272 0
-1269 -38 1270 1273 0
-1269 -38 1270 -1273 0
-1270 34 -8 1274 0
-1270 34 -8 -1274 0
10 22 -13 -31 0
26 -5 1275 1278 0
26 -5 1275 -1278 0
-1275 29 1276 1279 0
-1275 29 1276 -1279 0
-1276 8 1277 1280 0
-1276 8 1277 -1280 0
-1277 -34 38 1281 0
-1277 -34 38 -1281 0
30 -2 1282 1286 0
30 -2 1282 -1286 0
-1282 -35 1283 1287 0
-1282 -35 1283 -1287 0
-1283 -43 1284 1288 0
-1283 -43 1284 -1288 0
-1284 31 1285 1289 0
-1284 31 1285 -1289 0
-1285 6 -18 1290 0
-1285 6 -18 -1290 0
-39 -42 1291 1293 0
-39 -42 1291 -1293 0
-1291 -35 1292 1294 0
-1291 -35 1292 -1294 0
-1292 32 29 1295 0
-1292 32 29 -1295 0
30 1 1296 1298 0
30 1 1296 -1298 0
-1296 -40 1297 1299 0
-1296 -40 1297 -1299 0
-1297 -14 -42 1300 0
-1297 -14 -42 -1300 0
-30 -2 1301 1305 0
-30 -2 1301 -1305 0
-1301 -31 1302 1306 0
-1301 -31 1302 -1306 0
-1302 -18 1303 1307 0
-1302 -18 1303 -1307 0
-1303 43 1304 1308 0
-1303 43 1304 -1308 0
-1304 -35 -6 1309 0
-1304 -35 -6 -1309 0
-35 39 1310 1312 0
-35 39 1310 -1312 0
-1310 -29 1311 1313 0
-1310 -29 1311 -1313 0
-1311 42 -32 1314 0
-1311 42 -32 -1314 0
25 -16 1315 1317 0
25 -16 1315 -1317 0
-1315 -37 1316 1318 0
-1315 -37 1316 -1318 0
-1316 -34 -39 1319 0
-1316 -34 -39 -1319 0
17 -41 1320 1323 0
17 -41 1320 -1323 0
-1320 -43 1321 1324 0
-1320 -43 1321 -1324 0
-1321 4 1322 1325 0
-1321 4 1322 -1325 0
-1322 -7 -24 1326 0
-1322 -7 -24 -1326 0
-14 -30 1327 1329 0
-14 -30 1327 -1329 0
-1327 1 1328 1330 0
-1327 1 1328 -1330 0
-1328 -40 42 1331 0
-1328 -40 42 -1331 0
19 1 1332 1335 0
19 1 1332 -1335 0
-1332 -38 1333 1336 0
-1332 -38 1333 -1336 0
-1333 21 1334 1337 0
-1333 21 1334 -1337 0
-1334 -36 2 1338 0
-1334 -36 2 -1338 0
43 -31 1339 1343 0
43 -31 1339 -1343 0
-1339 35 1340 1344 0
-1339 35 1340 -1344 0
-1340 -6 1341 1345 0
-1340 -6 1341 -1345 0
-1341 18 1342 1346 0
-1341 18 1342 -1346 0
-1342 -2 -30 1347 0
-1342 -2 -30 -1347 0
6 -43 1348 1352 0
6 -43 1348 -1352 0
-1348 -18 1349 1353 0
-1348 -18 1349 -1353 0
-1349 31 1350 1354 0
-1349 31 1350 -1354 0
-1350 -30 1351 1355 0
-1350 -30 1351 -1355 0
-1351 -2 35 1356 0
-1351 -2 35 -1356 0
17 4 1357 1360 0
17 4 1357 -1360 0
-1357 24 1358 1361 0
-1357 24 1358 -1361 0
-1358 41 1359 1362 0
-1358 41 1359 -1362 0
-1359 -43 -7 1363 0
-1359 -43 -7 -1363 0
42 30 1364 1366 0
42 30 1364 -1366 0
-1364 40 1365 1367 0
-1364 40 1365 -1367 0
-1365 14 -1 1368 0
-1365 14 -1 -1368 0
-6 -31 1369 1373 0
-6 -31 1369 -1373 0
-1369 -35 1370 1374 0
-1369 -35 1370 -1374 0
-1370 -2 1371 1375 0
-1370 -2 1371 -1375 0
-1371 -30 1372 1376 0
-1371 -30 1372 -1376 0
-1372 18 -43 1377 0
-1372 18 -43 -1377 0
3 -15 1378 1380 0
3 -15 1378 -1380 0
-1378 -18 1379 1381 0
-1378 -18 1379 -1381 0
-1379 40 41 1382 0
-1379 40 41 -1382 0
17 -4 1383 1386 0
17 -4 1383 -1386 0
-1383 43 1384 1387 0
-1383 43 1384 -1387 0
-1384 24 1385 1388 0
-1384 24 1385 -1388 0
-1385 7 -41 1389 0
-1385 7 -41 -1389 0
30 2 1390 1394 0
30 2 1390 -1394 0
-1390 18 1391 1395 0
-1390 18 1391 -1395 0
-1391 -35 1392 1396 0
-1391 -35 1392 -1396 0
-1392 6 1393 1397 0
-1392 6 1393 -1397 0
-1393 -31 43 1398 0
-1393 -31 43 -1398 0
23 8 3 -28 0
-6 -18 1399 1403 0
-6 -18 1399 -1403 0
-1399 2 1400 1404 0
-1399 2 1400 -1404 0
-1400 -43 1401 1405 0
-1400 -43 1401 -1405 0
-1401 30 1402 1406 0
-1401 30 1402 -1406 0
-1402 35 -31 1407 0
-1402 35 -31 -1407 0
43 24 1408 1411 0
43 24 1408 -1411 0
-1408 17 1409 1412 0
-1408 17 1409 -1412 0
-1409 41 1410 1413 0
-1409 41 1410 -1413 0
-1410 -4 -7 1414 0
-1410 -4 -7 -1414 0
-43 -17 1415 1418 0
-43 -17 1415 -1418 0
-1415 41 1416 1419 0
-1415 41 1416 -1419 0
-1416 7 1417 1420 0
-1416 7 1417 -1420 0
-1417 -24 -4 1421 0
-1417 -24 -4 -1421 0
42 35 1422 1424 0
42 35 1422 -1424 0
-1422 39 1423 1425 0
-1422 39 1423 -1425 0
-1423 -32 29 1426 0
-1423 -32 29 -1426 0
30 40 1427 1429 0
30 40 1427 -1429 0
-1427 -14 1428 1430 0
-1427 -14 1428 -1430 0
-1428 42 1 1431 0
-1428 42 1 -1431 0
23 -8 28 3 0
-18 2 1432 1436 0
-18 2 1432 -1436 0
-1432 -6 1433 1437 0
-1432 -6 1433 -1437 0
-1433 -43 1434 1438 0
-1433 -43 1434 -1438 0
-1434 -35 1435 1439 0
-1434 -35 1435 -1439 0
-1435 -31 -30 1440 0
-1435 -31 -30 -1440 0
-42 -14 1441 1443 0
-42 -14 1441 -1443 0
-1441 -1 1442 1444 0
-1441 -1 1442 -1444 0
-1442 -40 -30 1445 0
-1442 -40 -30 -1445 0
-9 16 -33 27 0
-19 6 1446 1448 0
-19 6 1446 -1448 0
-1446 27 1447 1449 0
-1446 27 1447 -1449 0
-1447 10 -4 1450 0
-1447 10 -4 -1450 0
10 19 1451 1453 0
10 19 1451 -1453 0
-1451 4 1452 1454 0
-1451 4 1452 -1454 0
-1452 27 6 1455 0
-1452 27 6 -1455 0
-11 -14 1456 1458 0
-11 -14 1456 -1458 0
-1456 -12 1457 1459 0
-1456 -12 1457 -1459 0
-1457 -28 20 1460 0
-1457 -28 20 -1460 0
35 32 1461 1463 0
35 32 1461 -1463 0
-1461 42 1462 1464 0
-1461 42 1462 -1464 0
-1462 39 -29 1465 0
-1462 39 -29 -1465 0
21 36 1466 1469 0
21 36 1466 -1469 0
-1466 19 1467 1470 0
-1466 19 1467 -1470 0
-1467 2 1468 1471 0
-1467 2 1468 -1471 0
-1468 -1 -38 1472 0
-1468 -1 -38 -1472 0
-24 -7 1473 1476 0
-24 -7 1473 -1476 0
-1473 -17 1474 1477 0
-1473 -17 1474 -1477 0
-1474 -4 1475 1478 0
-1474 -4 1475 -1478 0
-1475 -41 -43 1479 0
-1475 -41 -43 -1479 0
18 43 1480 1484 0
18 43 1480 -1484 0
-1480 2 1481 1485 0
-1480 2 1481 -1485 0
-1481 -30 1482 1486 0
-1481 -30 1482 -1486 0
-1482 -31 1483 1487 0
-1482 -31 1483 -1487 0
-1483 -6 -35 1488 0
-1483 -6 -35 -1488 0
22 -10 31 -13 0
-22 -13 -10 -31 0
34 -29 1489 1492 0
34 -29 1489 -1492 0
-1489 -5 1490 1493 0
-1489 -5 1490 -1493 0
-1490 26 1491 1494 0
-1490 26 1491 -1494 0
-1491 8 38 1495 0
-1491 8 38 -1495 0
-11 -37 -26 1496 0
-11 -37 -26 -1496 0
-2 30 1497 1501 0
-2 30 1497 -1501 0
-1497 -31 1498 1502 0
-1497 -31 1498 -1502 0
-1498 -35 1499 1503 0
-1498 -35 1499 -1503 0
-1499 -6 1500 1504 0
-1499 -6 1500 -1504 0
-1500 -18 -43 1505 0
-1500 -18 -43 -1505 0
41 -24 1506 1509 0
41 -24 1506 -1509 0
-1506 -17 1507 1510 0
-1506 -17 1507 -1510 0
-1507 7 1508 1511 0
-1507 7 1508 -1511 0
-1508 4 43 1512 0
-1508 4 43 -1512 0
-18 -31 1513 1517 0
-18 -31 1513 -1517 0
-1513 30 1514 1518 0
-1513 30 1514 -1518 0
-1514 2 1515 1519 0
-1514 2 1515 -1519 0
-1515 -35 1516 1520 0
-1515 -35 1516 -1520 0
-1516 -6 43 1521 0
-1516 -6 43 -1521 0
18 30 1522 1526 0
18 30 1522 -1526 0
-1522 43 1523 1527 0
-1522 43 1523 -1527 0
-1523 35 1524 1528 0
-1523 35 1524 -1528 0
-1524 6 1525 1529 0
-1524 6 1525 -1529 0
-1525 -2 -31 1530 0
-1525 -2 -31 -1530 0
-41 7 1531 1534 0
-41 7 1531 -1534 0
-1531 24 1532 1535 0
-1531 24 1532 -1535 0
-1532 -43 1533 1536 0
-1532 -43 1533 -1536 0
-1533 4 17 1537 0
-1533 4 17 -1537 0
-4 -19 1538 1540 0
-4 -19 1538 -1540 0
-1538 -27 1539 1541 0
-1538 -27 1539 -1541 0
-1539 -6 10 1542 0
-1539 -6 10 -1542 0
-14 -40 1543 1545 0
-14 -40 1543 -1545 0
-1543 42 1544 1546 0
-1543 42 1544 -1546 0
-1544 -1 30 1547 0
-1544 -1 30 -1547 0
8 -3 28 23 0
-10 -19 1548 1550 0
-10 -19 1548 -1550 0
-1548 6 1549 1551 0
-1548 6 1549 -1551 0
-1549 -4 -27 1552 0
-1549 -4 -27 -1552 0
-19 -36 1553 1556 0
-19 -36 1553 -1556 0
-1553 -2 1554 1557 0
-1553 -2 1554 -1557 0
-1554 1 1555 1558 0
-1554 1 1555 -1558 0
-1555 38 -21 1559 0
-1555 38 -21 -1559 0
19 -1 1560 1563 0
19 -1 1560 -1563 0
-1560 -38 1561 1564 0
-1560 -38 1561 -1564 0
-1561 -2 1562 1565 0
-1561 -2 1562 -1565 0
-1562 36 -21 1566 0
-1562 36 -21 -1566 0
-35 6 1567 1571 0
-35 6 1567 -1571 0
-1567 31 1568 1572 0
-1567 31 1568 -1572 0
-1568 18 1569 1573 0
-1568 18 1569 -1573 0
-1569 30 1570 1574 0
-1569 30 1570 -1574 0
-1570 -43 2 1575 0
-1570 -43 2 -1575 0
21 5 20 -32 0
43 -31 1576 1580 0
43 -31 1576 -1580 0
-1576 -2 1577 1581 0
-1576 -2 1577 -1581 0
-1577 -18 1578 1582 0
-1577 -18 1578 -1582 0
-1578 6 1579 1583 0
-1578 6 1579 -1583 0
-1579 30 -35 1584 0
-1579 30 -35 -1584 0
40 -1 1585 1587 0
40 -1 1585 -1587 0
-1585 14 1586 1588 0
-1585 14 1586 -1588 0
-1586 -42 -30 1589 0
-1586 -42 -30 -1589 0
34 5 1590 1593 0
34 5 1590 -1593 0
-1590 -26 1591 1594 0
-1590 -26 1591 -1594 0
-1591 8 1592 1595 0
-1591 8 1592 -1595 0
-1592 29 -38 1596 0
-1592 29 -38 -1596 0
39 -16 1597 1599 0
39 -16 1597 -1599 0
-1597 -34 1598 1600 0
-1597 -34 1598 -1600 0
-1598 37 25 1601 0
-1598 37 25 -1601 0
-12 -14 1602 1604 0
-12 -14 1602 -1604 0
-1602 28 1603 1605 0
-1602 28 1603 -1605 0
-1603 -20 -11 1606 0
-1603 -20 -11 -1606 0
-35 -18 1607 1611 0
-35 -18 1607 -1611 0
-1607 -43 1608 1612 0
-1607 -43 1608 -1612 0
-1608 6 1609 1613 0
-1608 6 1609 -1613 0
-1609 2 1610 1614 0
-1609 2 1610 -1614 0
-1610 -31 30 1615 0
-1610 -31 30 -1615 0
-15 -40 1616 1618 0
-15 -40 1616 -1618 0
-1616 18 1617 1619 0
-1616 18 1617 -1619 0
-1617 -3 -41 1620 0
-1617 -3 -41 -1620 0
38 -8 1621 1624 0
38 -8 1621 -1624 0
-1621 -5 1622 1625 0
-1621 -5 1622 -1625 0
-1622 29 1623 1626 0
-1622 29 1623 -1626 0
-1623 -26 -34 1627 0
-1623 -26 -34 -1627 0
7 -41 1628 1631 0
7 -41 1628 -1631 0
-1628 4 1629 1632 0
-1628 4 1629 -1632 0
-1629 -17 1630 1633 0
-1629 -17 1630 -1633 0
-1630 43 24 1634 0
-1630 43 24 -1634 0
19 6 1635 1637 0
19 6 1635 -1637 0
-1635 -4 1636 1638 0
-1635 -4 1636 -1638 0
-1636 27 -10 1639 0
-1636 27 -10 -1639 0
31 30 1640 1644 0
31 30 1640 -1644 0
-1640 -6 1641 1645 0
-1640 -6 1641 -1645 0
-1641 18 1642 1646 0
-1641 18 1642 -1646 0
-1642 2 1643 1647 0
-1642 2 1643 -1647 0
-1643 43 -35 1648 0
-1643 43 -35 -1648 0
-3 41 1649 1651 0
-3 41 1649 -1651 0
-1649 18 1650 1652 0
-1649 18 1650 -1652 0
-1650 -15 40 1653 0
-1650 -15 40 -1653 0
-6 -43 1654 1658 0
-6 -43 1654 -1658 0
-1654 -30 1655 1659 0
-1654 -30 1655 -1659 0
-1655 -18 1656 1660 0
-1655 -18 1656 -1660 0
-1656 -31 1657 1661 0
-1656 -31 1657 -1661 0
-1657 -2 35 1662 0
-1657 -2 35 -1662 0
6 18 1663 1667 0
6 18 1663 -1667 0
-1663 -30 1664 1668 0
-1663 -30 1664 -1668 0
-1664 35 1665 1669 0
-1664 35 1665 -1669 0
-1665 -43 1666 1670 0
-1665 -43 1666 -1670 0
-1666 2 31 1671 0
-1666 2 31 -1671 0
-32 -20 -21 5 0
41 43 1672 1675 0
41 43 1672 -1675 0
-1672 -17 1673 1676 0
-1672 -17 1673 -1676 0
-1673 -4 1674 1677 0
-1673 -4 1674 -1677 0
-1674 24 7 1678 0
-1674 24 7 -1678 0
-34 38 1679 1682 0
-34 38 1679 -1682 0
-1679 -29 1680 1683 0
-1679 -29 1680 -1683 0
-1680 -5 1681 1684 0
-1680 -5 1681 -1684 0
-1681 -8 26 1685 0
-1681 -8 26 -1685 0
2 38 1686 1689 0
2 38 1686 -1689 0
-1686 21 1687 1690 0
-1686 21 1687 -1690 0
-1687 1 1688 1691 0
-1687 1 1688 -1691 0
-1688 36 19 1692 0
-1688 36 19 -1692 0
8 -29 1693 1696 0
8 -29 1693 -1696 0
-1693 -38 1694 1697 0
-1693 -38 1694 -1697 0
-1694 -5 1695 1698 0
-1694 -5 1695 -1698 0
-1695 -26 34 1699 0
-1695 -26 34 -1699 0
-29 26 1700 1703 0
-29 26 1700 -1703 0
-1700 -34 1701 1704 0
-1700 -34 1701 -1704 0
-1701 38 1702 1705 0
-1701 38 1702 -1705 0
-1702 5 8 1706 0
-1702 5 8 -1706 0
-25 -37 1707 1709 0
-25 -37 1707 -1709 0
-1707 16 1708 1710 0
-1707 16 1708 -1710 0
-1708 39 34 1711 0
-1708 39 34 -1711 0
42 -39 1712 1714 0
42 -39 1712 -1714 0
-1712 -29 1713 1715 0
-1712 -29 1713 -1715 0
-1713 -35 32 1716 0
-1713 -35 32 -1716 0
33 9 16 27 0
24 -4 1717 1720 0
24 -4 1717 -1720 0
-1717 -41 1718 1721 0
-1717 -41 1718 -1721 0
-1718 17 1719 1722 0
-1718 17 1719 -1722 0
-1719 -7 -43 1723 0
-1719 -7 -43 -1723 0
-21 -38 1724 1727 0
-21 -38 1724 -1727 0
-1724 2 1725 1728 0
-1724 2 1725 -1728 0
-1725 19 1726 1729 0
-1725 19 1726 -1729 0
-1726 -1 -36 1730 0
-1726 -1 -36 -1730 0
-26 -29 1731 1734 0
-26 -29 1731 -1734 0
-1731 5 1732 1735 0
-1731 5 1732 -1735 0
-1732 -34 1733 1736 0
-1732 -34 1733 -1736 0
-1733 8 -38 1737 0
-1733 8 -38 -1737 0
-31 -6 1738 1742 0
-31 -6 1738 -1742 0
-1738 -30 1739 1743 0
-1738 -30 1739 -1743 0
-1739 -18 1740 1744 0
-1739 -18 1740 -1744 0
-1740 2 1741 1745 0
-1740 2 1741 -1745 0
-1741 43 35 1746 0
-1741 43 35 -1746 0
24 17 1747 1750 0
24 17 1747 -1750 0
-1747 -4 1748 1751 0
-1747 -4 1748 -1751 0
-1748 7 1749 1752 0
-1748 7 1749 -1752 0
-1749 41 -43 1753 0
-1749 41 -43 -1753 0
-42 35 1754 1756 0
-42 35 1754 -1756 0
-1754 -29 1755 1757 0
-1754 -29 1755 -1757 0
-1755 39 -32 1758 0
-1755 39 -32 -1758 0
1 -42 1759 1761 0
1 -42 1759 -1761 0
-1759 40 1760 1762 0
-1759 40 1760 -1762 0
-1760 -14 -30 1763 0
-1760 -14 -30 -1763 0
43 -41 1764 1767 0
43 -41 1764 -1767 0
-1764 -7 1765 1768 0
-1764 -7 1765 -1768 0
-1765 4 1766 1769 0
-1765 4 1766 -1769 0
-1766 17 24 1770 0
-1766 17 24 -1770 0
19 -4 1771 1773 0
19 -4 1771 -1773 0
-1771 -27 1772 1774 0
-1771 -27 1772 -1774 0
-1772 -10 -6 1775 0
-1772 -10 -6 -1775 0

